9
-1 75 99 47 87 22 73 58 42
66 -1 43 66 59 76 38 48 89
40 58 -1 59 39 50 11 73 55
26 25 65 -1 56 25 25 54 90
30 34 89 73 -1 66 22 88 49
48 45 13 67 94 -1 99 84 97
16 39 39 80 11 63 -1 20 26
91 58 80 76 47 55 48 -1 35
85 29 73 70 62 73 38 16 -1
